StringID Type x y demand ReadyTime DueDate ServiceTime
D0 d 35 35.0 0.0 0.0 230.0 0.0
Dt d 35 35.0 0.0 0.0 230.0 0.0
C91 c3 15 19.0 1.0 77.0 107.0 10.0
C28 c3 41 37.0 16.0 183.0 213.0 10.0
C75 c3 49 11.0 18.0 49.0 79.0 10.0
C78 c1 61 52.0 3.0 158.0 188.0 10.0
C95 c2 25 24.0 20.0 130.0 160.0 10.0
P0 p 27 48.0 0.0 0.0 230.0 5.0
param CV := 200.0 nan nan nan nan
param V := 1.0 nan nan nan nan
